50 1390
1161 83 258 83 498 903 830 83 1032 830 645 581 83 83 387 129 249 747 332 83 645 415 830 1032 516 498 415 1161 516 645 516 581 830 516 774 581 516 747 774 166 129 1161 516 664 830 1161 332 830 1290 830 
1251 69 278 69 414 973 690 69 1112 690 695 483 69 69 417 139 207 621 276 69 695 345 690 1112 556 414 345 1251 556 695 556 483 690 556 834 483 556 621 834 138 139 1251 556 552 690 1251 276 690 1390 690 
